(declare-const x String)
(declare-const y String)
(assert (str.in.re x (re.* (re.++ (str.to.re "LL") (re.* (str.to.re "hh"))))))
(assert (str.in.re y (re.* (re.++ (str.to.re "LL") (re.* (str.to.re "hh"))))))
(assert (not (= x y)))
(assert (= (str.len x) (str.len y)))
(check-sat)
(get-model)
